NAME: ../File/prFile/tspFile/tsp_file7.tsp
COMMENT: TSP file generated by Python
TYPE: TSP
DIMENSION: 30
EDGE_WEIGHT_TYPE: EUC_2D
NODE_COORD_SECTION
1 45 4
2 44 73
3 4 57
4 69 48
5 89 60
6 51 68
7 85 69
8 96 88
9 88 86
10 91 8
11 10 35
12 84 4
13 3 92
14 11 41
15 68 65
16 100 17
17 2 63
18 92 90
19 62 35
20 100 66
21 49 7
22 38 48
23 50 91
24 6 52
25 90 76
26 90 96
27 63 90
28 98 6
29 94 20
30 90 67
EOF
